% Data example rectangle

% Example 1
width = 5;
height = 4;
sq = [3, 2, 2, 1, 1, 1];

% Example 2
% width = 1;
% height = 3;
% sq = [1, 1, 1];

% Example 3
% width = 6;
% height = 4;
% sq = [4, 2, 2];

% Example 4
% width = 5;
% height = 5;
% sq = [3, 2, 2, 2, 1, 1, 1, 1];

% Example 5
% width = 37;
% height = 37;
% sq = [19, 18, 18, 11, 8, 8, 6, 5, 5, 3, 3, 2, 1, 1, 1];

% Example 6
% width = 5;
% height = 9;
% sq = [5, 3, 2, 2, 1, 1, 1];

%Example 7 Fibonacci
%width = 21;
%height = 13;
%sq = [1,1,2,3,5,8,13];
